
Gurobi 6.0.4 (win64) logging started 06/21/15 19:09:27

Read LP format model from file C:\MT\repository\VRPTWMS\instances\mip\fuel\N6-C_DV100-C_SV30_F6_6_No_1.lp
Reading time = 0.00 seconds
(null): 253 rows, 128 columns, 957 nonzeros
Optimize a model with 253 rows, 128 columns and 957 nonzeros
Model has 216 quadratic constraints
Coefficient statistics:
  Matrix range    [1e+00, 1e+06]
  Objective range [3e+04, 1e+07]
  Bounds range    [1e+00, 1e+06]
  RHS range       [1e+00, 1e+06]
Presolve removed 50 rows and 30 columns
Presolve time: 0.08s
Presolved: 487 rows, 240 columns, 2396 nonzeros
Variable types: 142 continuous, 98 integer (76 binary)
Found heuristic solution: objective 6.280520e+07

Root relaxation: objective 2.163783e+07, 29 iterations, 0.00 seconds

    Nodes    |    Current Node    |     Objective Bounds      |     Work
 Expl Unexpl |  Obj  Depth IntInf | Incumbent    BestBd   Gap | It/Node Time

     0     0 2.1638e+07    0   10 6.2805e+07 2.1638e+07  65.5%     -    0s
H    0     0                    3.199200e+07 2.1638e+07  32.4%     -    0s
     0     0 2.1803e+07    0   10 3.1992e+07 2.1803e+07  31.8%     -    0s
     0     0 2.1951e+07    0   14 3.1992e+07 2.1951e+07  31.4%     -    0s
H    0     0                    3.173880e+07 2.1951e+07  30.8%     -    0s
     0     0 2.1958e+07    0   10 3.1739e+07 2.1958e+07  30.8%     -    0s
     0     0 2.1987e+07    0   19 3.1739e+07 2.1987e+07  30.7%     -    0s
     0     0 2.2064e+07    0   23 3.1739e+07 2.2064e+07  30.5%     -    0s
H    0     0                    3.171150e+07 2.2064e+07  30.4%     -    0s
     0     0 2.4401e+07    0   16 3.1712e+07 2.4401e+07  23.1%     -    0s

Explored 0 nodes (107 simplex iterations) in 0.14 seconds
Thread count was 2 (of 4 available processors)

Optimal solution found (tolerance 1.00e-04)
Best objective 3.171150000000e+07, best bound 3.171150000000e+07, gap 0.0%
k_c1	920000.0
k_c2	243849.0
k_c3	160000.0
k_c4	100000.0
k_c5	920000.0
k_c6	90000.0
k_dN	-0.0
o_1	0.0
o_2	0.0
o_3	0.0
o_4	0.0
o_5	0.0
o_6	0.0
p_1	0.0
p_2	0.0
p_3	0.0
p_4	0.0
p_5	0.0
p_6	0.0
phi_c1	47222.0
phi_c2	42492.0
phi_c3	39234.0
phi_c4	30437.0
phi_c5	47958.0
phi_c6	19167.0
phi_d0	60000.0
phi_dN	-0.0
tauD_c1	50000.0
tauD_c2	147675.0
tauD_c3	300000.0
tauD_c4	362875.0
tauD_c5	50000.0
tauD_c6	450000.0
tauD_d0	-0.0
tauD_dN	1000000.0
tauS_c1	0.0
tauS_c2	0.0
tauS_c3	0.0
tauS_c4	0.0
tauS_c5	0.0
tauS_c6	0.0
tauS_d0	-0.0
tauS_dN	0.0
x_c1_c2	1.0
x_c2_dN	1.0
x_c3_c4	1.0
x_c4_dN	1.0
x_c5_c3	1.0
x_c6_dN	1.0
x_d0_c1	1.0
x_d0_c5	1.0
x_d0_c6	1.0
